(set-logic ALL)
(declare-datatypes ((L 0)(T 0)) (((nL) (cons (b T)))((nT) (cons (id Int) (arr (Array Int T))))))
(declare-datatypes ((|Array_[Int_T]_rc| 0)(T_rc 0)) (((cons (id Int) (index_0 T_rc)))((nT_rc) (cons_rc (id_rc Int) (arr_rc |Array_[Int_T]_rc|)))))
(declare-fun |_Array_[Int_T]_rc__1_4| ((Array Int T_rc)) |Array_[Int_T]_rc|)
(declare-fun x () L)
(declare-fun |_Array_[Int_T]_rc__0_3| (|Array_[Int_T]_rc|) (Array Int T_rc))
(declare-fun a_rc_2 () |Array_[Int_T]_rc|)
(assert (= (b x) (select (|_Array_[Int_T]_rc__0_3| a_rc_2) 0)))
(assert (= (|_Array_[Int_T]_rc__0_3| a_rc_2) (|_Array_[Int_T]_rc__0_3| (arr_rc (b x)))))
(assert (not (= nT_rc (b x))))
(assert (not (= nL x)))
(assert true)
(assert (= (index_0 a_rc_2) (select (|_Array_[Int_T]_rc__0_3| a_rc_2) 0)))
(assert (= a_rc_2 (|_Array_[Int_T]_rc__1_4| (|_Array_[Int_T]_rc__0_3| a_rc_2))))
(assert (let ((_let_1 (arr_rc (b x)))) (= _let_1 (|_Array_[Int_T]_rc__1_4| (|_Array_[Int_T]_rc__0_3| _let_1)))))
(check-sat)